Minimize
	value: tt

Subject to
tt + 1000 s_1_1 > 0.0
tt - t_1_1 - 1000.000000 s_1_1  + 0.000000 s_1_7  > -985.464056
tt + 1000 s_2_1 > 0.0
tt - t_2_1 - 1000.000000 s_2_1  + 0.000000 s_2_7  > -980.688831
tt + 1000 s_1_2 > 0.0
tt - t_1_2 - 1000.000000 s_1_2  + 0.000000 s_1_8  > -984.733567
tt + 1000 s_2_2 > 0.0
tt - t_2_2 - 1000.000000 s_2_2  + 0.000000 s_2_8  > -979.296282
tt + 1000 s_1_3 > 0.0
tt - t_1_3 - 1000.000000 s_1_3  + 0.000000 s_1_8  > -973.241100
tt + 1000 s_2_3 > 0.0
tt - t_2_3 - 1000.000000 s_2_3  + 0.000000 s_2_8  > -964.898226
tt + 1000 s_1_4 > 0.0
tt - t_1_4 - 1000.000000 s_1_4  + 0.000000 s_1_3  + 0.000000 s_1_8  > -986.239933
tt + 1000 s_2_4 > 0.0
tt - t_2_4 - 1000.000000 s_2_4  + 0.000000 s_2_3  + 0.000000 s_2_8  > -982.032390
tt + 1000 s_1_5 > 0.0
tt - t_1_5 - 1000.000000 s_1_5  + 0.000000 s_1_7  + 0.000000 s_1_8  > -986.774478
tt + 1000 s_2_5 > 0.0
tt - t_2_5 - 1000.000000 s_2_5  + 0.000000 s_2_7  + 0.000000 s_2_8  > -982.624367
tt + 1000 s_1_6 > 0.0
tt - t_1_6 - 1000.000000 s_1_6  + 0.000000 s_1_3  + 0.000000 s_1_4  + 0.000000 s_1_5  + 0.000000 s_1_2  + 0.000000 s_1_1  > -999.494889
tt + 1000 s_2_6 > 0.0
tt - t_2_6 - 1000.000000 s_2_6  + 0.000000 s_2_3  + 0.000000 s_2_4  + 0.000000 s_2_5  + 0.000000 s_2_2  + 0.000000 s_2_1  > -999.173150
tt + 1000 s_1_7 > 0.0
tt - t_1_7 - 1000.000000 s_1_7  > -974.888317
tt + 1000 s_2_7 > 0.0
tt - t_2_7 - 1000.000000 s_2_7  > -964.375983
tt + 1000 s_1_8 > 0.0
tt - t_1_8 - 1000.000000 s_1_8  > -962.835771
tt + 1000 s_2_8 > 0.0
tt - t_2_8 - 1000.000000 s_2_8  > -957.192708
s_1_1 + s_2_1 = 1
s_1_2 + s_2_2 = 1
s_1_3 + s_2_3 = 1
s_1_4 + s_2_4 = 1
s_1_5 + s_2_5 = 1
s_1_6 + s_2_6 = 1
s_1_7 + s_2_7 = 1
s_1_8 + s_2_8 = 1
s_1_1 + s_1_2 + 1000 r_1_1_2 >= 2
- s_1_1 - s_1_2 - 1000 r_1_1_2 >= -1001
t_1_1 - t_1_2 - 1000.000000 u_1_1_2 - 0.000000 s_1_2  + 0.000000 s_1_8  + 2000.000000 r_1_1_2 > -984.733567
s_2_1 + s_2_2 + 1000 r_2_1_2 >= 2
- s_2_1 - s_2_2 - 1000 r_2_1_2 >= -1001
t_2_1 - t_2_2 - 1000.000000 u_2_1_2 - 0.000000 s_2_2  + 0.000000 s_2_8  + 2000.000000 r_2_1_2 > -979.296282
s_1_1 + s_1_3 + 1000 r_1_1_3 >= 2
- s_1_1 - s_1_3 - 1000 r_1_1_3 >= -1001
t_1_1 - t_1_3 - 1000.000000 u_1_1_3 - 0.000000 s_1_3  + 0.000000 s_1_8  + 2000.000000 r_1_1_3 > -973.241100
s_2_1 + s_2_3 + 1000 r_2_1_3 >= 2
- s_2_1 - s_2_3 - 1000 r_2_1_3 >= -1001
t_2_1 - t_2_3 - 1000.000000 u_2_1_3 - 0.000000 s_2_3  + 0.000000 s_2_8  + 2000.000000 r_2_1_3 > -964.898226
s_1_1 + s_1_4 + 1000 r_1_1_4 >= 2
- s_1_1 - s_1_4 - 1000 r_1_1_4 >= -1001
t_1_1 - t_1_4 - 1000.000000 u_1_1_4 - 0.000000 s_1_4  + 0.000000 s_1_3  + 0.000000 s_1_8  + 2000.000000 r_1_1_4 > -986.239933
s_2_1 + s_2_4 + 1000 r_2_1_4 >= 2
- s_2_1 - s_2_4 - 1000 r_2_1_4 >= -1001
t_2_1 - t_2_4 - 1000.000000 u_2_1_4 - 0.000000 s_2_4  + 0.000000 s_2_3  + 0.000000 s_2_8  + 2000.000000 r_2_1_4 > -982.032390
s_1_1 + s_1_5 + 1000 r_1_1_5 >= 2
- s_1_1 - s_1_5 - 1000 r_1_1_5 >= -1001
t_1_1 - t_1_5 - 1000.000000 u_1_1_5 - 0.000000 s_1_5  + 0.000000 s_1_7  + 0.000000 s_1_8  + 2000.000000 r_1_1_5 > -986.774478
s_2_1 + s_2_5 + 1000 r_2_1_5 >= 2
- s_2_1 - s_2_5 - 1000 r_2_1_5 >= -1001
t_2_1 - t_2_5 - 1000.000000 u_2_1_5 - 0.000000 s_2_5  + 0.000000 s_2_7  + 0.000000 s_2_8  + 2000.000000 r_2_1_5 > -982.624367
t_1_6 - t_1_1 - 1000.000000 s_1_1  + 0.000000 s_1_7  > -985.464056
t_1_6 - t_2_1 - 1000.000000 s_2_1  + 0.000000 s_2_7  > -980.688831
t_2_6 - t_1_1 - 1000.000000 s_1_1  + 0.000000 s_1_7  > -985.464056
t_2_6 - t_2_1 - 1000.000000 s_2_1  + 0.000000 s_2_7  > -980.688831
t_1_1 - t_1_7 - 1000.000000 s_1_7  > -974.888317
t_1_1 - t_2_7 - 1000.000000 s_2_7  > -964.375983
t_2_1 - t_1_7 - 1000.000000 s_1_7  > -974.888317
t_2_1 - t_2_7 - 1000.000000 s_2_7  > -964.375983
s_1_1 + s_1_8 + 1000 r_1_1_8 >= 2
- s_1_1 - s_1_8 - 1000 r_1_1_8 >= -1001
t_1_1 - t_1_8 - 1000.000000 u_1_1_8 - 0.000000 s_1_8  + 2000.000000 r_1_1_8 > -962.835771
s_2_1 + s_2_8 + 1000 r_2_1_8 >= 2
- s_2_1 - s_2_8 - 1000 r_2_1_8 >= -1001
t_2_1 - t_2_8 - 1000.000000 u_2_1_8 - 0.000000 s_2_8  + 2000.000000 r_2_1_8 > -957.192708
s_1_2 + s_1_1 + 1000 r_1_1_2 >= 2
- s_1_2 - s_1_1 - 1000 r_1_1_2 >= -1001
t_1_2 - t_1_1 + 1000.000000 u_1_1_2 - 0.000000 s_1_1  + 0.000000 s_1_7  + 2000.000000 r_1_1_2 > 14.535944
s_2_2 + s_2_1 + 1000 r_2_1_2 >= 2
- s_2_2 - s_2_1 - 1000 r_2_1_2 >= -1001
t_2_2 - t_2_1 + 1000.000000 u_2_1_2 - 0.000000 s_2_1  + 0.000000 s_2_7  + 2000.000000 r_2_1_2 > 19.311169
s_1_2 + s_1_3 + 1000 r_1_2_3 >= 2
- s_1_2 - s_1_3 - 1000 r_1_2_3 >= -1001
t_1_2 - t_1_3 - 1000.000000 u_1_2_3 - 0.000000 s_1_3  + 0.000000 s_1_8  + 2000.000000 r_1_2_3 > -973.241100
s_2_2 + s_2_3 + 1000 r_2_2_3 >= 2
- s_2_2 - s_2_3 - 1000 r_2_2_3 >= -1001
t_2_2 - t_2_3 - 1000.000000 u_2_2_3 - 0.000000 s_2_3  + 0.000000 s_2_8  + 2000.000000 r_2_2_3 > -964.898226
s_1_2 + s_1_4 + 1000 r_1_2_4 >= 2
- s_1_2 - s_1_4 - 1000 r_1_2_4 >= -1001
t_1_2 - t_1_4 - 1000.000000 u_1_2_4 - 0.000000 s_1_4  + 0.000000 s_1_3  + 0.000000 s_1_8  + 2000.000000 r_1_2_4 > -986.239933
s_2_2 + s_2_4 + 1000 r_2_2_4 >= 2
- s_2_2 - s_2_4 - 1000 r_2_2_4 >= -1001
t_2_2 - t_2_4 - 1000.000000 u_2_2_4 - 0.000000 s_2_4  + 0.000000 s_2_3  + 0.000000 s_2_8  + 2000.000000 r_2_2_4 > -982.032390
s_1_2 + s_1_5 + 1000 r_1_2_5 >= 2
- s_1_2 - s_1_5 - 1000 r_1_2_5 >= -1001
t_1_2 - t_1_5 - 1000.000000 u_1_2_5 - 0.000000 s_1_5  + 0.000000 s_1_7  + 0.000000 s_1_8  + 2000.000000 r_1_2_5 > -986.774478
s_2_2 + s_2_5 + 1000 r_2_2_5 >= 2
- s_2_2 - s_2_5 - 1000 r_2_2_5 >= -1001
t_2_2 - t_2_5 - 1000.000000 u_2_2_5 - 0.000000 s_2_5  + 0.000000 s_2_7  + 0.000000 s_2_8  + 2000.000000 r_2_2_5 > -982.624367
t_1_6 - t_1_2 - 1000.000000 s_1_2  + 0.000000 s_1_8  > -984.733567
t_1_6 - t_2_2 - 1000.000000 s_2_2  + 0.000000 s_2_8  > -979.296282
t_2_6 - t_1_2 - 1000.000000 s_1_2  + 0.000000 s_1_8  > -984.733567
t_2_6 - t_2_2 - 1000.000000 s_2_2  + 0.000000 s_2_8  > -979.296282
s_1_2 + s_1_7 + 1000 r_1_2_7 >= 2
- s_1_2 - s_1_7 - 1000 r_1_2_7 >= -1001
t_1_2 - t_1_7 - 1000.000000 u_1_2_7 - 0.000000 s_1_7  + 2000.000000 r_1_2_7 > -974.888317
s_2_2 + s_2_7 + 1000 r_2_2_7 >= 2
- s_2_2 - s_2_7 - 1000 r_2_2_7 >= -1001
t_2_2 - t_2_7 - 1000.000000 u_2_2_7 - 0.000000 s_2_7  + 2000.000000 r_2_2_7 > -964.375983
t_1_2 - t_1_8 - 1000.000000 s_1_8  > -962.835771
t_1_2 - t_2_8 - 1000.000000 s_2_8  > -957.192708
t_2_2 - t_1_8 - 1000.000000 s_1_8  > -962.835771
t_2_2 - t_2_8 - 1000.000000 s_2_8  > -957.192708
s_1_3 + s_1_1 + 1000 r_1_1_3 >= 2
- s_1_3 - s_1_1 - 1000 r_1_1_3 >= -1001
t_1_3 - t_1_1 + 1000.000000 u_1_1_3 - 0.000000 s_1_1  + 0.000000 s_1_7  + 2000.000000 r_1_1_3 > 14.535944
s_2_3 + s_2_1 + 1000 r_2_1_3 >= 2
- s_2_3 - s_2_1 - 1000 r_2_1_3 >= -1001
t_2_3 - t_2_1 + 1000.000000 u_2_1_3 - 0.000000 s_2_1  + 0.000000 s_2_7  + 2000.000000 r_2_1_3 > 19.311169
s_1_3 + s_1_2 + 1000 r_1_2_3 >= 2
- s_1_3 - s_1_2 - 1000 r_1_2_3 >= -1001
t_1_3 - t_1_2 + 1000.000000 u_1_2_3 - 0.000000 s_1_2  + 0.000000 s_1_8  + 2000.000000 r_1_2_3 > 15.266433
s_2_3 + s_2_2 + 1000 r_2_2_3 >= 2
- s_2_3 - s_2_2 - 1000 r_2_2_3 >= -1001
t_2_3 - t_2_2 + 1000.000000 u_2_2_3 - 0.000000 s_2_2  + 0.000000 s_2_8  + 2000.000000 r_2_2_3 > 20.703718
t_1_4 - t_1_3 - 1000.000000 s_1_3  + 0.000000 s_1_8  > -973.241100
t_1_4 - t_2_3 - 1000.000000 s_2_3  + 0.000000 s_2_8  > -964.898226
t_2_4 - t_1_3 - 1000.000000 s_1_3  + 0.000000 s_1_8  > -973.241100
t_2_4 - t_2_3 - 1000.000000 s_2_3  + 0.000000 s_2_8  > -964.898226
s_1_3 + s_1_5 + 1000 r_1_3_5 >= 2
- s_1_3 - s_1_5 - 1000 r_1_3_5 >= -1001
t_1_3 - t_1_5 - 1000.000000 u_1_3_5 - 0.000000 s_1_5  + 0.000000 s_1_7  + 0.000000 s_1_8  + 2000.000000 r_1_3_5 > -986.774478
s_2_3 + s_2_5 + 1000 r_2_3_5 >= 2
- s_2_3 - s_2_5 - 1000 r_2_3_5 >= -1001
t_2_3 - t_2_5 - 1000.000000 u_2_3_5 - 0.000000 s_2_5  + 0.000000 s_2_7  + 0.000000 s_2_8  + 2000.000000 r_2_3_5 > -982.624367
t_1_6 - t_1_3 - 1000.000000 s_1_3  + 0.000000 s_1_8  > -973.241100
t_1_6 - t_2_3 - 1000.000000 s_2_3  + 0.000000 s_2_8  > -964.898226
t_2_6 - t_1_3 - 1000.000000 s_1_3  + 0.000000 s_1_8  > -973.241100
t_2_6 - t_2_3 - 1000.000000 s_2_3  + 0.000000 s_2_8  > -964.898226
s_1_3 + s_1_7 + 1000 r_1_3_7 >= 2
- s_1_3 - s_1_7 - 1000 r_1_3_7 >= -1001
t_1_3 - t_1_7 - 1000.000000 u_1_3_7 - 0.000000 s_1_7  + 2000.000000 r_1_3_7 > -974.888317
s_2_3 + s_2_7 + 1000 r_2_3_7 >= 2
- s_2_3 - s_2_7 - 1000 r_2_3_7 >= -1001
t_2_3 - t_2_7 - 1000.000000 u_2_3_7 - 0.000000 s_2_7  + 2000.000000 r_2_3_7 > -964.375983
t_1_3 - t_1_8 - 1000.000000 s_1_8  > -962.835771
t_1_3 - t_2_8 - 1000.000000 s_2_8  > -957.192708
t_2_3 - t_1_8 - 1000.000000 s_1_8  > -962.835771
t_2_3 - t_2_8 - 1000.000000 s_2_8  > -957.192708
s_1_4 + s_1_1 + 1000 r_1_1_4 >= 2
- s_1_4 - s_1_1 - 1000 r_1_1_4 >= -1001
t_1_4 - t_1_1 + 1000.000000 u_1_1_4 - 0.000000 s_1_1  + 0.000000 s_1_7  + 2000.000000 r_1_1_4 > 14.535944
s_2_4 + s_2_1 + 1000 r_2_1_4 >= 2
- s_2_4 - s_2_1 - 1000 r_2_1_4 >= -1001
t_2_4 - t_2_1 + 1000.000000 u_2_1_4 - 0.000000 s_2_1  + 0.000000 s_2_7  + 2000.000000 r_2_1_4 > 19.311169
s_1_4 + s_1_2 + 1000 r_1_2_4 >= 2
- s_1_4 - s_1_2 - 1000 r_1_2_4 >= -1001
t_1_4 - t_1_2 + 1000.000000 u_1_2_4 - 0.000000 s_1_2  + 0.000000 s_1_8  + 2000.000000 r_1_2_4 > 15.266433
s_2_4 + s_2_2 + 1000 r_2_2_4 >= 2
- s_2_4 - s_2_2 - 1000 r_2_2_4 >= -1001
t_2_4 - t_2_2 + 1000.000000 u_2_2_4 - 0.000000 s_2_2  + 0.000000 s_2_8  + 2000.000000 r_2_2_4 > 20.703718
s_1_4 + s_1_5 + 1000 r_1_4_5 >= 2
- s_1_4 - s_1_5 - 1000 r_1_4_5 >= -1001
t_1_4 - t_1_5 - 1000.000000 u_1_4_5 - 0.000000 s_1_5  + 0.000000 s_1_7  + 0.000000 s_1_8  + 2000.000000 r_1_4_5 > -986.774478
s_2_4 + s_2_5 + 1000 r_2_4_5 >= 2
- s_2_4 - s_2_5 - 1000 r_2_4_5 >= -1001
t_2_4 - t_2_5 - 1000.000000 u_2_4_5 - 0.000000 s_2_5  + 0.000000 s_2_7  + 0.000000 s_2_8  + 2000.000000 r_2_4_5 > -982.624367
t_1_6 - t_1_4 - 1000.000000 s_1_4  + 0.000000 s_1_3  + 0.000000 s_1_8  > -986.239933
t_1_6 - t_2_4 - 1000.000000 s_2_4  + 0.000000 s_2_3  + 0.000000 s_2_8  > -982.032390
t_2_6 - t_1_4 - 1000.000000 s_1_4  + 0.000000 s_1_3  + 0.000000 s_1_8  > -986.239933
t_2_6 - t_2_4 - 1000.000000 s_2_4  + 0.000000 s_2_3  + 0.000000 s_2_8  > -982.032390
s_1_4 + s_1_7 + 1000 r_1_4_7 >= 2
- s_1_4 - s_1_7 - 1000 r_1_4_7 >= -1001
t_1_4 - t_1_7 - 1000.000000 u_1_4_7 - 0.000000 s_1_7  + 2000.000000 r_1_4_7 > -974.888317
s_2_4 + s_2_7 + 1000 r_2_4_7 >= 2
- s_2_4 - s_2_7 - 1000 r_2_4_7 >= -1001
t_2_4 - t_2_7 - 1000.000000 u_2_4_7 - 0.000000 s_2_7  + 2000.000000 r_2_4_7 > -964.375983
t_1_4 - t_1_8 - 1000.000000 s_1_8  > -962.835771
t_1_4 - t_2_8 - 1000.000000 s_2_8  > -957.192708
t_2_4 - t_1_8 - 1000.000000 s_1_8  > -962.835771
t_2_4 - t_2_8 - 1000.000000 s_2_8  > -957.192708
s_1_5 + s_1_1 + 1000 r_1_1_5 >= 2
- s_1_5 - s_1_1 - 1000 r_1_1_5 >= -1001
t_1_5 - t_1_1 + 1000.000000 u_1_1_5 - 0.000000 s_1_1  + 0.000000 s_1_7  + 2000.000000 r_1_1_5 > 14.535944
s_2_5 + s_2_1 + 1000 r_2_1_5 >= 2
- s_2_5 - s_2_1 - 1000 r_2_1_5 >= -1001
t_2_5 - t_2_1 + 1000.000000 u_2_1_5 - 0.000000 s_2_1  + 0.000000 s_2_7  + 2000.000000 r_2_1_5 > 19.311169
s_1_5 + s_1_2 + 1000 r_1_2_5 >= 2
- s_1_5 - s_1_2 - 1000 r_1_2_5 >= -1001
t_1_5 - t_1_2 + 1000.000000 u_1_2_5 - 0.000000 s_1_2  + 0.000000 s_1_8  + 2000.000000 r_1_2_5 > 15.266433
s_2_5 + s_2_2 + 1000 r_2_2_5 >= 2
- s_2_5 - s_2_2 - 1000 r_2_2_5 >= -1001
t_2_5 - t_2_2 + 1000.000000 u_2_2_5 - 0.000000 s_2_2  + 0.000000 s_2_8  + 2000.000000 r_2_2_5 > 20.703718
s_1_5 + s_1_3 + 1000 r_1_3_5 >= 2
- s_1_5 - s_1_3 - 1000 r_1_3_5 >= -1001
t_1_5 - t_1_3 + 1000.000000 u_1_3_5 - 0.000000 s_1_3  + 0.000000 s_1_8  + 2000.000000 r_1_3_5 > 26.758900
s_2_5 + s_2_3 + 1000 r_2_3_5 >= 2
- s_2_5 - s_2_3 - 1000 r_2_3_5 >= -1001
t_2_5 - t_2_3 + 1000.000000 u_2_3_5 - 0.000000 s_2_3  + 0.000000 s_2_8  + 2000.000000 r_2_3_5 > 35.101774
s_1_5 + s_1_4 + 1000 r_1_4_5 >= 2
- s_1_5 - s_1_4 - 1000 r_1_4_5 >= -1001
t_1_5 - t_1_4 + 1000.000000 u_1_4_5 - 0.000000 s_1_4  + 0.000000 s_1_3  + 0.000000 s_1_8  + 2000.000000 r_1_4_5 > 13.760067
s_2_5 + s_2_4 + 1000 r_2_4_5 >= 2
- s_2_5 - s_2_4 - 1000 r_2_4_5 >= -1001
t_2_5 - t_2_4 + 1000.000000 u_2_4_5 - 0.000000 s_2_4  + 0.000000 s_2_3  + 0.000000 s_2_8  + 2000.000000 r_2_4_5 > 17.967610
t_1_6 - t_1_5 - 1000.000000 s_1_5  + 0.000000 s_1_7  + 0.000000 s_1_8  > -986.774478
t_1_6 - t_2_5 - 1000.000000 s_2_5  + 0.000000 s_2_7  + 0.000000 s_2_8  > -982.624367
t_2_6 - t_1_5 - 1000.000000 s_1_5  + 0.000000 s_1_7  + 0.000000 s_1_8  > -986.774478
t_2_6 - t_2_5 - 1000.000000 s_2_5  + 0.000000 s_2_7  + 0.000000 s_2_8  > -982.624367
t_1_5 - t_1_7 - 1000.000000 s_1_7  > -974.888317
t_1_5 - t_2_7 - 1000.000000 s_2_7  > -964.375983
t_2_5 - t_1_7 - 1000.000000 s_1_7  > -974.888317
t_2_5 - t_2_7 - 1000.000000 s_2_7  > -964.375983
t_1_5 - t_1_8 - 1000.000000 s_1_8  > -962.835771
t_1_5 - t_2_8 - 1000.000000 s_2_8  > -957.192708
t_2_5 - t_1_8 - 1000.000000 s_1_8  > -962.835771
t_2_5 - t_2_8 - 1000.000000 s_2_8  > -957.192708
s_1_7 + s_1_2 + 1000 r_1_2_7 >= 2
- s_1_7 - s_1_2 - 1000 r_1_2_7 >= -1001
t_1_7 - t_1_2 + 1000.000000 u_1_2_7 - 0.000000 s_1_2  + 0.000000 s_1_8  + 2000.000000 r_1_2_7 > 15.266433
s_2_7 + s_2_2 + 1000 r_2_2_7 >= 2
- s_2_7 - s_2_2 - 1000 r_2_2_7 >= -1001
t_2_7 - t_2_2 + 1000.000000 u_2_2_7 - 0.000000 s_2_2  + 0.000000 s_2_8  + 2000.000000 r_2_2_7 > 20.703718
s_1_7 + s_1_3 + 1000 r_1_3_7 >= 2
- s_1_7 - s_1_3 - 1000 r_1_3_7 >= -1001
t_1_7 - t_1_3 + 1000.000000 u_1_3_7 - 0.000000 s_1_3  + 0.000000 s_1_8  + 2000.000000 r_1_3_7 > 26.758900
s_2_7 + s_2_3 + 1000 r_2_3_7 >= 2
- s_2_7 - s_2_3 - 1000 r_2_3_7 >= -1001
t_2_7 - t_2_3 + 1000.000000 u_2_3_7 - 0.000000 s_2_3  + 0.000000 s_2_8  + 2000.000000 r_2_3_7 > 35.101774
s_1_7 + s_1_4 + 1000 r_1_4_7 >= 2
- s_1_7 - s_1_4 - 1000 r_1_4_7 >= -1001
t_1_7 - t_1_4 + 1000.000000 u_1_4_7 - 0.000000 s_1_4  + 0.000000 s_1_3  + 0.000000 s_1_8  + 2000.000000 r_1_4_7 > 13.760067
s_2_7 + s_2_4 + 1000 r_2_4_7 >= 2
- s_2_7 - s_2_4 - 1000 r_2_4_7 >= -1001
t_2_7 - t_2_4 + 1000.000000 u_2_4_7 - 0.000000 s_2_4  + 0.000000 s_2_3  + 0.000000 s_2_8  + 2000.000000 r_2_4_7 > 17.967610
s_1_7 + s_1_8 + 1000 r_1_7_8 >= 2
- s_1_7 - s_1_8 - 1000 r_1_7_8 >= -1001
t_1_7 - t_1_8 - 1000.000000 u_1_7_8 - 0.000000 s_1_8  + 2000.000000 r_1_7_8 > -962.835771
s_2_7 + s_2_8 + 1000 r_2_7_8 >= 2
- s_2_7 - s_2_8 - 1000 r_2_7_8 >= -1001
t_2_7 - t_2_8 - 1000.000000 u_2_7_8 - 0.000000 s_2_8  + 2000.000000 r_2_7_8 > -957.192708
s_1_8 + s_1_1 + 1000 r_1_1_8 >= 2
- s_1_8 - s_1_1 - 1000 r_1_1_8 >= -1001
t_1_8 - t_1_1 + 1000.000000 u_1_1_8 - 0.000000 s_1_1  + 0.000000 s_1_7  + 2000.000000 r_1_1_8 > 14.535944
s_2_8 + s_2_1 + 1000 r_2_1_8 >= 2
- s_2_8 - s_2_1 - 1000 r_2_1_8 >= -1001
t_2_8 - t_2_1 + 1000.000000 u_2_1_8 - 0.000000 s_2_1  + 0.000000 s_2_7  + 2000.000000 r_2_1_8 > 19.311169
s_1_8 + s_1_7 + 1000 r_1_7_8 >= 2
- s_1_8 - s_1_7 - 1000 r_1_7_8 >= -1001
t_1_8 - t_1_7 + 1000.000000 u_1_7_8 - 0.000000 s_1_7  + 2000.000000 r_1_7_8 > 25.111683
s_2_8 + s_2_7 + 1000 r_2_7_8 >= 2
- s_2_8 - s_2_7 - 1000 r_2_7_8 >= -1001
t_2_8 - t_2_7 + 1000.000000 u_2_7_8 - 0.000000 s_2_7  + 2000.000000 r_2_7_8 > 35.624017
Binary
s_1_1
s_2_1
s_1_2
s_2_2
s_1_3
s_2_3
s_1_4
s_2_4
s_1_5
s_2_5
s_1_6
s_2_6
s_1_7
s_2_7
s_1_8
s_2_8
u_1_1_2
r_1_1_2
u_2_1_2
r_2_1_2
u_1_1_3
r_1_1_3
u_2_1_3
r_2_1_3
u_1_1_4
r_1_1_4
u_2_1_4
r_2_1_4
u_1_1_5
r_1_1_5
u_2_1_5
r_2_1_5
u_1_1_8
r_1_1_8
u_2_1_8
r_2_1_8
u_1_2_3
r_1_2_3
u_2_2_3
r_2_2_3
u_1_2_4
r_1_2_4
u_2_2_4
r_2_2_4
u_1_2_5
r_1_2_5
u_2_2_5
r_2_2_5
u_1_2_7
r_1_2_7
u_2_2_7
r_2_2_7
u_1_3_5
r_1_3_5
u_2_3_5
r_2_3_5
u_1_3_7
r_1_3_7
u_2_3_7
r_2_3_7
u_1_4_5
r_1_4_5
u_2_4_5
r_2_4_5
u_1_4_7
r_1_4_7
u_2_4_7
r_2_4_7
u_1_7_8
r_1_7_8
u_2_7_8
r_2_7_8

End
